
Gurobi 13.0.0 (linux64) logging started Sun Jan 18 01:03:36 2026

Set parameter LogFile to value "../experiments/network-n_60_s_1_rp_0-app_set-id_31_15_apps/submip_40_epr1_model_gurobi.log"
Set parameter TimeLimit to value 8.6550637202399957e+02
Gurobi Optimizer version 13.0.0 build v13.0.0rc1 (linux64 - "Ubuntu 24.04.3 LTS")

CPU model: Intel(R) Core(TM) Ultra 7 165H, instruction set [SSE2|AVX|AVX2]
Thread count: 22 physical cores, 22 logical processors, using up to 22 threads

Non-default parameters:
TimeLimit  8.6550637202399957e+02
LogToConsole  0

Academic license 2539022 - for non-commercial use only - registered to al___@studenti.unimi.it
Optimize a model with 36942 rows, 5880 columns and 82071 nonzeros (Min)
Model fingerprint: 0x5a7e66d1
Model has 5880 linear objective coefficients
Model has 206 quadratic constraints
Variable types: 0 continuous, 5880 integer (5880 binary)
Coefficient statistics:
  Matrix range     [1e+00, 9e+02]
  QMatrix range    [5e+01, 2e+02]
  Objective range  [1e+01, 2e+02]
  Bounds range     [1e+00, 1e+00]
  RHS range        [1e+00, 1e+09]
  QRHS range       [1e+02, 6e+02]

Loaded MIP start from previous solve with objective 3825

Presolve removed 36578 rows and 4906 columns
Presolve time: 0.10s
Presolved: 6924 rows, 7297 columns, 43262 nonzeros
Variable types: 0 continuous, 7297 integer (7297 binary)

Root relaxation: objective 3.666974e+03, 885 iterations, 0.04 seconds (0.06 work units)

    Nodes    |    Current Node    |     Objective Bounds      |     Work
 Expl Unexpl |  Obj  Depth IntInf | Incumbent    BestBd   Gap | It/Node Time

     0     0 3666.97402    0  107 3825.00000 3666.97402  4.13%     -    0s
     0     0 3736.76778    0  130 3825.00000 3736.76778  2.31%     -    0s
     0     0 3737.85701    0  120 3825.00000 3737.85701  2.28%     -    0s
     0     0 3737.86083    0  123 3825.00000 3737.86083  2.28%     -    0s
     0     0 3768.49228    0  149 3825.00000 3768.49228  1.48%     -    1s
     0     0 3769.42453    0  145 3825.00000 3769.42453  1.45%     -    1s
     0     0 3782.45519    0  144 3825.00000 3782.45519  1.11%     -    1s
     0     0 3783.05745    0  142 3825.00000 3783.05745  1.10%     -    1s
     0     0 3791.74726    0  171 3825.00000 3791.74726  0.87%     -    1s
     0     0 3791.83987    0  171 3825.00000 3791.83987  0.87%     -    1s
     0     0 3791.83987    0  171 3825.00000 3791.83987  0.87%     -    1s
     0     0 3791.83987    0  169 3825.00000 3791.83987  0.87%     -    1s
     0     0 3791.85070    0  108 3825.00000 3791.85070  0.87%     -    1s
     0     0 3791.85070    0  127 3825.00000 3791.85070  0.87%     -    1s
     0     0 3791.85070    0  150 3825.00000 3791.85070  0.87%     -    2s
     0     0 3791.85070    0  137 3825.00000 3791.85070  0.87%     -    2s
     0     0 3792.72168    0  163 3825.00000 3792.72168  0.84%     -    2s
     0     0 3795.49254    0  153 3825.00000 3795.49254  0.77%     -    2s
     0     0 3795.50146    0  151 3825.00000 3795.50146  0.77%     -    2s
     0     0 3795.50146    0  151 3825.00000 3795.50146  0.77%     -    2s
     0     0 3795.50146    0  142 3825.00000 3795.50146  0.77%     -    2s
     0     2 3795.50348    0  139 3825.00000 3795.50348  0.77%     -    2s

Cutting planes:
  Gomory: 2
  Cover: 56
  Implied bound: 4
  Clique: 31
  MIR: 44
  Knapsack: 9
  StrongCG: 16
  GUB cover: 4
  Zero half: 7
  RLT: 78
  Relax-and-lift: 21
  BQP: 23

Explored 275 nodes (15158 simplex iterations) in 2.54 seconds (1.93 work units)
Thread count was 22 (of 22 available processors)

Solution count 1: 3825 

Optimal solution found (tolerance 1.00e-04)
Best objective 3.825000000000e+03, best bound 3.825000000000e+03, gap 0.0000%

User-callback calls 1968, time in user-callback 0.00 sec
